min: c;

c = 3.80500062103611 * u3_t10_h0 + 3.23755378088927 * u3_t10_h1 + 3.9340489384277 * u3_t4_h2 + 3.9340489384277 * u3_t10_h2 + 3.04949066782038 * u3_t4_h3 + 3.04949066782038 * u3_t10_h3 + 3.59474633127573 * u3_t4_h4 + 3.59474633127573 * u3_t10_h4 + 3.22868516277264 * u3_t4_h5 + 3.22868516277264 * u3_t10_h5 + 3.55735801937265 * u3_t4_h6 + 3.55735801937265 * u3_t10_h6 + 4.51247764404031 * u3_t4_h7 + 4.51247764404031 * u3_t9_h7 + 4.51247764404031 * u3_t10_h7 + 5.07528794555158 * u3_t4_h8 + 5.07528794555158 * u3_t9_h8 + 5.08664599616555 * u3_t4_h9 + 5.08664599616555 * u3_t9_h9 + 4.98406635040752 * u3_t4_h10 + 4.98406635040752 * u3_t6_h10 + 4.98406635040752 * u3_t9_h10 + 3.97992170937529 * u3_t3_h11 + 3.97992170937529 * u3_t4_h11 + 3.97992170937529 * u3_t6_h11 + 3.97992170937529 * u3_t9_h11 + 6.66284936232622 * u3_t3_h12 + 6.66284936232622 * u3_t4_h12 + 6.66284936232622 * u3_t6_h12 + 6.66284936232622 * u3_t9_h12 + 4.3077220006697 * u3_t3_h13 + 4.3077220006697 * u3_t4_h13 + 4.3077220006697 * u3_t5_h13 + 4.3077220006697 * u3_t6_h13 + 4.3077220006697 * u3_t9_h13 + 5.71061201231653 * u3_t3_h14 + 5.71061201231653 * u3_t4_h14 + 5.71061201231653 * u3_t5_h14 + 5.71061201231653 * u3_t6_h14 + 5.71061201231653 * u3_t9_h14 + 5.99181895184607 * u3_t2_h15 + 5.99181895184607 * u3_t3_h15 + 5.99181895184607 * u3_t4_h15 + 5.99181895184607 * u3_t5_h15 + 5.99181895184607 * u3_t6_h15 + 5.99181895184607 * u3_t9_h15 + 6.02134074801763 * u3_t2_h16 + 6.02134074801763 * u3_t4_h16 + 6.02134074801763 * u3_t5_h16 + 6.02134074801763 * u3_t6_h16 + 6.02134074801763 * u3_t9_h16 + 6.46494978402456 * u3_t2_h17 + 6.46494978402456 * u3_t4_h17 + 6.46494978402456 * u3_t6_h17 + 6.46494978402456 * u3_t9_h17 + 6.24199204023312 * u3_t2_h18 + 6.24199204023312 * u3_t6_h18 + 6.24199204023312 * u3_t9_h18 + 5.35107114356414 * u3_t2_h19 + 5.35107114356414 * u3_t9_h19 + 5.3804913317916 * u3_t1_h20 + 5.3804913317916 * u3_t2_h20 + 5.3804913317916 * u3_t8_h20 + 5.3804913317916 * u3_t9_h20 + 5.70183596309591 * u3_t1_h21 + 5.70183596309591 * u3_t2_h21 + 5.70183596309591 * u3_t7_h21 + 5.70183596309591 * u3_t8_h21 + 5.70183596309591 * u3_t9_h21 + 5.1286987466126 * u3_t1_h22 + 5.1286987466126 * u3_t7_h22 + 5.1286987466126 * u3_t8_h22 + 5.47637569410557 * u3_t1_h23 + 5.47637569410557 * u3_t7_h23 + 5.47637569410557 * u3_t8_h23;
0 <= u3_t1_h20 <= 1;
0 <= u3_t1_h21 <= 1;
0 <= u3_t1_h22 <= 1;
0 <= u3_t1_h23 <= 1;
u3_t1_h20 + u3_t1_h21 + u3_t1_h22 + u3_t1_h23 = 2;
0 <= u3_t2_h15 <= 1;
0 <= u3_t2_h16 <= 1;
0 <= u3_t2_h17 <= 1;
0 <= u3_t2_h18 <= 1;
0 <= u3_t2_h19 <= 1;
0 <= u3_t2_h20 <= 1;
0 <= u3_t2_h21 <= 1;
u3_t2_h15 + u3_t2_h16 + u3_t2_h17 + u3_t2_h18 + u3_t2_h19 + u3_t2_h20 + u3_t2_h21 = 3;
0 <= u3_t3_h11 <= 1;
0 <= u3_t3_h12 <= 1;
0 <= u3_t3_h13 <= 1;
0 <= u3_t3_h14 <= 1;
0 <= u3_t3_h15 <= 1;
u3_t3_h11 + u3_t3_h12 + u3_t3_h13 + u3_t3_h14 + u3_t3_h15 = 2;
0 <= u3_t4_h2 <= 1;
0 <= u3_t4_h3 <= 1;
0 <= u3_t4_h4 <= 1;
0 <= u3_t4_h5 <= 1;
0 <= u3_t4_h6 <= 1;
0 <= u3_t4_h7 <= 1;
0 <= u3_t4_h8 <= 1;
0 <= u3_t4_h9 <= 1;
0 <= u3_t4_h10 <= 1;
0 <= u3_t4_h11 <= 1;
0 <= u3_t4_h12 <= 1;
0 <= u3_t4_h13 <= 1;
0 <= u3_t4_h14 <= 1;
0 <= u3_t4_h15 <= 1;
0 <= u3_t4_h16 <= 1;
0 <= u3_t4_h17 <= 1;
u3_t4_h2 + u3_t4_h3 + u3_t4_h4 + u3_t4_h5 + u3_t4_h6 + u3_t4_h7 + u3_t4_h8 + u3_t4_h9 + u3_t4_h10 + u3_t4_h11 + u3_t4_h12 + u3_t4_h13 + u3_t4_h14 + u3_t4_h15 + u3_t4_h16 + u3_t4_h17 = 3;
0 <= u3_t5_h13 <= 1;
0 <= u3_t5_h14 <= 1;
0 <= u3_t5_h15 <= 1;
0 <= u3_t5_h16 <= 1;
u3_t5_h13 + u3_t5_h14 + u3_t5_h15 + u3_t5_h16 = 2;
0 <= u3_t6_h10 <= 1;
0 <= u3_t6_h11 <= 1;
0 <= u3_t6_h12 <= 1;
0 <= u3_t6_h13 <= 1;
0 <= u3_t6_h14 <= 1;
0 <= u3_t6_h15 <= 1;
0 <= u3_t6_h16 <= 1;
0 <= u3_t6_h17 <= 1;
0 <= u3_t6_h18 <= 1;
u3_t6_h10 + u3_t6_h11 + u3_t6_h12 + u3_t6_h13 + u3_t6_h14 + u3_t6_h15 + u3_t6_h16 + u3_t6_h17 + u3_t6_h18 = 2;
0 <= u3_t7_h21 <= 1;
0 <= u3_t7_h22 <= 1;
0 <= u3_t7_h23 <= 1;
u3_t7_h21 + u3_t7_h22 + u3_t7_h23 = 2;
0 <= u3_t8_h20 <= 1;
0 <= u3_t8_h21 <= 1;
0 <= u3_t8_h22 <= 1;
0 <= u3_t8_h23 <= 1;
u3_t8_h20 + u3_t8_h21 + u3_t8_h22 + u3_t8_h23 = 1;
0 <= u3_t9_h7 <= 1;
0 <= u3_t9_h8 <= 1;
0 <= u3_t9_h9 <= 1;
0 <= u3_t9_h10 <= 1;
0 <= u3_t9_h11 <= 1;
0 <= u3_t9_h12 <= 1;
0 <= u3_t9_h13 <= 1;
0 <= u3_t9_h14 <= 1;
0 <= u3_t9_h15 <= 1;
0 <= u3_t9_h16 <= 1;
0 <= u3_t9_h17 <= 1;
0 <= u3_t9_h18 <= 1;
0 <= u3_t9_h19 <= 1;
0 <= u3_t9_h20 <= 1;
0 <= u3_t9_h21 <= 1;
u3_t9_h7 + u3_t9_h8 + u3_t9_h9 + u3_t9_h10 + u3_t9_h11 + u3_t9_h12 + u3_t9_h13 + u3_t9_h14 + u3_t9_h15 + u3_t9_h16 + u3_t9_h17 + u3_t9_h18 + u3_t9_h19 + u3_t9_h20 + u3_t9_h21 = 2;
0 <= u3_t10_h0 <= 1;
0 <= u3_t10_h1 <= 1;
0 <= u3_t10_h2 <= 1;
0 <= u3_t10_h3 <= 1;
0 <= u3_t10_h4 <= 1;
0 <= u3_t10_h5 <= 1;
0 <= u3_t10_h6 <= 1;
0 <= u3_t10_h7 <= 1;
u3_t10_h0 + u3_t10_h1 + u3_t10_h2 + u3_t10_h3 + u3_t10_h4 + u3_t10_h5 + u3_t10_h6 + u3_t10_h7 = 3;
